<?xml version = "1.0" encoding="UTF-8" standalone="yes"?>
<CPLEXSolution version="1.2">
 <header
   problemName="servo.lp"
   solutionName="incumbent"
   solutionIndex="-1"
   objectiveValue="45.382718929959765"
   solutionTypeValue="3"
   solutionTypeString="primal"
   solutionStatusValue="102"
   solutionStatusString="integer optimal, tolerance"
   solutionMethodString="mip"
   primalFeasible="1"
   dualFeasible="0"
   MIPNodes="2070"
   MIPIterations="42440"
   writeLevel="1"/>
 <quality
   epInt="0"
   epRHS="9.9999999999999995e-07"
   maxIntInfeas="0"
   maxPrimalInfeas="1.0845582302243528e-06"
   maxX="45.382718929959765"
   maxSlack="101.03314650781249"
   maxQCSlackInfeas="0"
   maxQCSlack="1.0697688292982122e-06"/>
 <linearConstraints>
  <constraint name="c1" index="0" slack="9.4845536868781721e-08"/>
  <constraint name="c2" index="1" slack="-1.8365925358310164e-07"/>
  <constraint name="c3" index="2" slack="2.5426615679613462e-07"/>
  <constraint name="c4" index="3" slack="3.6162045180532232e-07"/>
  <constraint name="c5" index="4" slack="-1.6795746893283336e-07"/>
  <constraint name="c6" index="5" slack="4.471588785914804e-07"/>
  <constraint name="c7" index="6" slack="5.6359838884745272e-07"/>
  <constraint name="c8" index="7" slack="3.5286116784050137e-07"/>
  <constraint name="c9" index="8" slack="8.0669993374193893e-07"/>
  <constraint name="c10" index="9" slack="1.6956960896541418e-07"/>
  <constraint name="c11" index="10" slack="-1.2766437484934556e-07"/>
  <constraint name="c12" index="11" slack="1.631330783791185e-07"/>
  <constraint name="c13" index="12" slack="-3.3822835765473513e-07"/>
  <constraint name="c14" index="13" slack="-2.3374136515208477e-09"/>
  <constraint name="c15" index="14" slack="3.2659838056225965e-08"/>
  <constraint name="c16" index="15" slack="-2.6591035223733073e-07"/>
  <constraint name="c17" index="16" slack="3.3202442467628046e-07"/>
  <constraint name="c18" index="17" slack="-1.602082215779177e-07"/>
  <constraint name="c19" index="18" slack="-4.9470537988316465e-07"/>
  <constraint name="c20" index="19" slack="-1.3425184430815307e-07"/>
  <constraint name="c21" index="20" slack="2.4468218728923574e-07"/>
  <constraint name="c22" index="21" slack="-2.1049160917052667e-07"/>
  <constraint name="c23" index="22" slack="-1.6811913716718863e-07"/>
  <constraint name="c24" index="23" slack="-1.1446452374830329e-07"/>
  <constraint name="c25" index="24" slack="-4.9378627808849274e-07"/>
  <constraint name="c26" index="25" slack="1.2910413815792054e-07"/>
  <constraint name="c27" index="26" slack="-8.6882299576984678e-08"/>
  <constraint name="c28" index="27" slack="-1.2276476613060083e-07"/>
  <constraint name="c29" index="28" slack="-3.8687917730539922e-07"/>
  <constraint name="c30" index="29" slack="-3.5580789869982254e-07"/>
  <constraint name="c31" index="30" slack="-1.1685913547943017e-07"/>
  <constraint name="c32" index="31" slack="-1.8611888918940167e-08"/>
  <constraint name="c33" index="32" slack="-9.1599274387732521e-08"/>
  <constraint name="c34" index="33" slack="8.4063084759833373e-07"/>
  <constraint name="c35" index="34" slack="1.9233983472588534e-07"/>
  <constraint name="c36" index="35" slack="6.440069568180995e-07"/>
  <constraint name="c37" index="36" slack="2.9020280600811077e-07"/>
  <constraint name="c38" index="37" slack="3.0920244431520416e-07"/>
  <constraint name="c39" index="38" slack="-2.4279988697362143e-07"/>
  <constraint name="c40" index="39" slack="-9.6879637978553035e-08"/>
  <constraint name="c41" index="40" slack="1.1903063790175139e-07"/>
  <constraint name="c42" index="41" slack="-1.6647010070425239e-07"/>
  <constraint name="c43" index="42" slack="-1.5481934700911637e-07"/>
  <constraint name="c44" index="43" slack="-3.581753099668461e-07"/>
  <constraint name="c45" index="44" slack="2.9937753343034501e-07"/>
  <constraint name="c46" index="45" slack="-2.8335948742963524e-07"/>
  <constraint name="c47" index="46" slack="3.3123855097683119e-07"/>
  <constraint name="c48" index="47" slack="3.1800686994820637e-07"/>
  <constraint name="c49" index="48" slack="-3.8145665759437009e-07"/>
  <constraint name="c50" index="49" slack="3.4651085972781104e-07"/>
  <constraint name="c51" index="50" slack="-5.9721043788041328e-07"/>
  <constraint name="c52" index="51" slack="-2.2621993478466607e-07"/>
  <constraint name="c53" index="52" slack="-4.5100396173225477e-07"/>
  <constraint name="c54" index="53" slack="6.9533966140511438e-08"/>
  <constraint name="c55" index="54" slack="2.7696885795958082e-07"/>
  <constraint name="c56" index="55" slack="-2.0086737978486369e-07"/>
  <constraint name="c57" index="56" slack="1.2929583970144876e-07"/>
  <constraint name="c58" index="57" slack="-2.0197694591828075e-07"/>
  <constraint name="c59" index="58" slack="-1.9791913441480347e-07"/>
  <constraint name="c60" index="59" slack="-2.306878060798212e-07"/>
  <constraint name="c61" index="60" slack="9.5563386193209254e-07"/>
  <constraint name="c62" index="61" slack="6.120016982080756e-08"/>
  <constraint name="c63" index="62" slack="2.9140356661017108e-07"/>
  <constraint name="c64" index="63" slack="5.132814567820887e-07"/>
  <constraint name="c65" index="64" slack="5.3620087875350109e-07"/>
  <constraint name="c66" index="65" slack="2.218018180233372e-07"/>
  <constraint name="c67" index="66" slack="-2.8408763519394142e-07"/>
  <constraint name="c68" index="67" slack="-2.4375967225265249e-07"/>
  <constraint name="c69" index="68" slack="6.5669065762996581e-07"/>
  <constraint name="c70" index="69" slack="-2.4794659769789007e-07"/>
  <constraint name="c71" index="70" slack="1.2814891275914064e-07"/>
  <constraint name="c72" index="71" slack="4.22116107956505e-07"/>
  <constraint name="c73" index="72" slack="-1.9084847746597688e-07"/>
  <constraint name="c74" index="73" slack="-1.3015064836974233e-07"/>
  <constraint name="c75" index="74" slack="-3.1712397186023367e-07"/>
  <constraint name="c76" index="75" slack="-1.3013162336594775e-07"/>
  <constraint name="c77" index="76" slack="5.8810804615117007e-07"/>
  <constraint name="c78" index="77" slack="-7.1932921397177552e-07"/>
  <constraint name="c79" index="78" slack="-4.3306877905990859e-07"/>
  <constraint name="c80" index="79" slack="6.3603759989372399e-07"/>
  <constraint name="c81" index="80" slack="-2.097233400277787e-07"/>
  <constraint name="c82" index="81" slack="-1.6439102668019956e-07"/>
  <constraint name="c83" index="82" slack="-3.0444237353322023e-08"/>
  <constraint name="c84" index="83" slack="6.5721396913520636e-07"/>
  <constraint name="c85" index="84" slack="3.5647945495487221e-07"/>
  <constraint name="c86" index="85" slack="-1.5831244826181035e-07"/>
  <constraint name="c87" index="86" slack="4.186920573578945e-07"/>
  <constraint name="c88" index="87" slack="2.0950845719402977e-07"/>
  <constraint name="c89" index="88" slack="-1.7350507020008621e-07"/>
  <constraint name="c90" index="89" slack="-2.8910347082966581e-07"/>
  <constraint name="c91" index="90" slack="1.4400424414029445e-07"/>
  <constraint name="c92" index="91" slack="3.1215581230981115e-09"/>
  <constraint name="c93" index="92" slack="7.9594617147238367e-08"/>
  <constraint name="c94" index="93" slack="6.6912310925371088e-07"/>
  <constraint name="c95" index="94" slack="-3.7966406984946133e-07"/>
  <constraint name="c96" index="95" slack="-1.9034524723071655e-07"/>
  <constraint name="c97" index="96" slack="-2.0737842459928046e-07"/>
  <constraint name="c98" index="97" slack="-2.9242591403910723e-07"/>
  <constraint name="c99" index="98" slack="-5.8555392490333702e-07"/>
  <constraint name="c100" index="99" slack="-1.1530766563794259e-07"/>
  <constraint name="c101" index="100" slack="-3.6689080396001827e-07"/>
  <constraint name="c102" index="101" slack="-5.8315568574052179e-07"/>
  <constraint name="c103" index="102" slack="-1.1393455068287039e-07"/>
  <constraint name="c104" index="103" slack="-2.5844730233703928e-07"/>
  <constraint name="c105" index="104" slack="4.8957781972891468e-07"/>
  <constraint name="c106" index="105" slack="1.6901356958420877e-07"/>
  <constraint name="c107" index="106" slack="-7.6242003377302581e-08"/>
  <constraint name="c108" index="107" slack="-3.649853058951269e-07"/>
  <constraint name="c109" index="108" slack="2.9975615412070056e-07"/>
  <constraint name="c110" index="109" slack="3.703063522486616e-08"/>
  <constraint name="c111" index="110" slack="-1.3526177322642496e-07"/>
  <constraint name="c112" index="111" slack="3.1454007309861254e-07"/>
  <constraint name="c113" index="112" slack="2.8796034445832674e-08"/>
  <constraint name="c114" index="113" slack="-2.141336497007984e-08"/>
  <constraint name="c115" index="114" slack="2.6102981290354599e-08"/>
  <constraint name="c116" index="115" slack="3.3333428262061204e-07"/>
  <constraint name="c117" index="116" slack="-2.2843256664017986e-07"/>
  <constraint name="c118" index="117" slack="3.8354976816812325e-07"/>
  <constraint name="c119" index="118" slack="5.9358691406607988e-08"/>
  <constraint name="c120" index="119" slack="1.7298261655029901e-07"/>
  <constraint name="c121" index="120" slack="6.6747193327998389e-08"/>
  <constraint name="c122" index="121" slack="1.9145024321431947e-07"/>
  <constraint name="c123" index="122" slack="5.0534231532672891e-07"/>
  <constraint name="c124" index="123" slack="1.7686520867310485e-07"/>
  <constraint name="c125" index="124" slack="6.8645594342164884e-07"/>
  <constraint name="c126" index="125" slack="2.4809568494044143e-07"/>
  <constraint name="c127" index="126" slack="1.7234394916743057e-07"/>
  <constraint name="c128" index="127" slack="-4.0798291078836257e-07"/>
  <constraint name="c129" index="128" slack="-3.7955367782060989e-07"/>
  <constraint name="c130" index="129" slack="-5.6998248942896623e-07"/>
  <constraint name="c131" index="130" slack="9.4168144171291601e-08"/>
  <constraint name="c132" index="131" slack="3.5988004543074936e-07"/>
  <constraint name="c133" index="132" slack="1.2909438074082402e-07"/>
  <constraint name="c134" index="133" slack="-1.0004044861400274e-06"/>
  <constraint name="c135" index="134" slack="-6.3564286278960935e-08"/>
  <constraint name="c136" index="135" slack="-3.3724035475302117e-07"/>
  <constraint name="c137" index="136" slack="2.3073235477788501e-07"/>
  <constraint name="c138" index="137" slack="-2.7161385407481475e-07"/>
  <constraint name="c139" index="138" slack="-4.5093356260128559e-07"/>
  <constraint name="c140" index="139" slack="1.9616827140467308e-07"/>
  <constraint name="c141" index="140" slack="1.6425403703834718e-07"/>
  <constraint name="c142" index="141" slack="-2.3702103582601275e-07"/>
  <constraint name="c143" index="142" slack="-1.0277215478637913e-07"/>
  <constraint name="c144" index="143" slack="1.2982728359034468e-07"/>
  <constraint name="c145" index="144" slack="-9.7131068521605357e-08"/>
  <constraint name="c146" index="145" slack="6.8807923735147991e-07"/>
  <constraint name="c147" index="146" slack="-6.3552983320391832e-08"/>
  <constraint name="c148" index="147" slack="-2.2248801519186845e-07"/>
  <constraint name="c149" index="148" slack="-3.7971036981332418e-07"/>
  <constraint name="c150" index="149" slack="3.1545194195681248e-07"/>
  <constraint name="c151" index="150" slack="6.773502364554318e-08"/>
  <constraint name="c152" index="151" slack="-9.674802542436467e-08"/>
  <constraint name="c153" index="152" slack="-2.4994294794966621e-07"/>
  <constraint name="c154" index="153" slack="-4.1285811470948008e-07"/>
  <constraint name="c155" index="154" slack="-4.501874575346676e-07"/>
  <constraint name="c156" index="155" slack="-4.11284353685204e-07"/>
  <constraint name="c157" index="156" slack="1.5995266594570623e-07"/>
  <constraint name="c158" index="157" slack="-6.4267375865512122e-08"/>
  <constraint name="c159" index="158" slack="-1.0845582302243528e-06"/>
  <constraint name="c160" index="159" slack="1.6402821562122583e-07"/>
  <constraint name="c161" index="160" slack="1.3974773227509729e-07"/>
  <constraint name="c162" index="161" slack="-4.2225663521300305e-07"/>
  <constraint name="c163" index="162" slack="-5.0130200679454617e-07"/>
  <constraint name="c164" index="163" slack="-4.2538330680130798e-07"/>
  <constraint name="c165" index="164" slack="-1.99444421755679e-07"/>
  <constraint name="c166" index="165" slack="-2.3197374687811134e-08"/>
  <constraint name="c167" index="166" slack="1.4918940116626089e-07"/>
  <constraint name="c168" index="167" slack="0"/>
  <constraint name="c169" index="168" slack="0"/>
  <constraint name="c170" index="169" slack="-100.10707158158097"/>
  <constraint name="c171" index="170" slack="-100.32696778283102"/>
  <constraint name="c172" index="171" slack="-100.17041786628711"/>
  <constraint name="c173" index="172" slack="-99.714316018983041"/>
  <constraint name="c174" index="173" slack="-99.875271514779797"/>
  <constraint name="c175" index="174" slack="0"/>
  <constraint name="c176" index="175" slack="0"/>
  <constraint name="c177" index="176" slack="0"/>
  <constraint name="c178" index="177" slack="-98.966853492187511"/>
  <constraint name="c179" index="178" slack="-99.812181444056222"/>
  <constraint name="c180" index="179" slack="0"/>
  <constraint name="c181" index="180" slack="0"/>
  <constraint name="c182" index="181" slack="-100.21303704546797"/>
  <constraint name="c183" index="182" slack="-100.11908105791849"/>
  <constraint name="c184" index="183" slack="0"/>
  <constraint name="c185" index="184" slack="0"/>
  <constraint name="c186" index="185" slack="0"/>
  <constraint name="c187" index="186" slack="0"/>
  <constraint name="c188" index="187" slack="0"/>
  <constraint name="c189" index="188" slack="0"/>
  <constraint name="c190" index="189" slack="-99.892928418419032"/>
  <constraint name="c191" index="190" slack="-99.673032217168981"/>
  <constraint name="c192" index="191" slack="-99.82958213371289"/>
  <constraint name="c193" index="192" slack="-100.28568398101696"/>
  <constraint name="c194" index="193" slack="-100.1247284852202"/>
  <constraint name="c195" index="194" slack="0"/>
  <constraint name="c196" index="195" slack="0"/>
  <constraint name="c197" index="196" slack="0"/>
  <constraint name="c198" index="197" slack="-101.03314650781249"/>
  <constraint name="c199" index="198" slack="-100.18781855594378"/>
  <constraint name="c200" index="199" slack="0"/>
  <constraint name="c201" index="200" slack="0"/>
  <constraint name="c202" index="201" slack="-99.786962954532029"/>
  <constraint name="c203" index="202" slack="-99.880918942081507"/>
  <constraint name="c204" index="203" slack="0"/>
  <constraint name="c205" index="204" slack="0"/>
  <constraint name="c206" index="205" slack="0"/>
  <constraint name="c207" index="206" slack="0"/>
  <constraint name="c209" index="207" slack="-3.219646771412954e-15"/>
  <constraint name="c210" index="208" slack="0"/>
  <constraint name="c211" index="209" slack="0"/>
  <constraint name="c212" index="210" slack="0"/>
 </linearConstraints>
 <quadraticConstraints>
  <constraint name="c208" index="0" slack="1.0697688292982122e-06"/>
 </quadraticConstraints>
 <variables>
  <variable name="f" index="0" value="45.382718929959765"/>
  <variable name="ep1" index="1" value="0.2892140899244916"/>
  <variable name="a20" index="2" value="0"/>
  <variable name="a1" index="3" value="0"/>
  <variable name="a2" index="4" value="0"/>
  <variable name="a3" index="5" value="-0.10707158158096775"/>
  <variable name="a4" index="6" value="-0.32696778283101935"/>
  <variable name="a5" index="7" value="-0.17041786628711009"/>
  <variable name="a6" index="8" value="0.28568398101695891"/>
  <variable name="a7" index="9" value="0.12472848522020286"/>
  <variable name="a8" index="10" value="0"/>
  <variable name="a9" index="11" value="0"/>
  <variable name="a10" index="12" value="0"/>
  <variable name="a11" index="13" value="1.0331465078124893"/>
  <variable name="a12" index="14" value="0.18781855594377816"/>
  <variable name="a13" index="15" value="0"/>
  <variable name="a14" index="16" value="0"/>
  <variable name="a15" index="17" value="-0.21303704546797064"/>
  <variable name="a16" index="18" value="-0.11908105791849266"/>
  <variable name="a17" index="19" value="0"/>
  <variable name="a18" index="20" value="0"/>
  <variable name="a19" index="21" value="0"/>
  <variable name="ep2" index="22" value="0.0067843956261216783"/>
  <variable name="ep3" index="23" value="0.49146753241362523"/>
  <variable name="ep4" index="24" value="0.56390825158074109"/>
  <variable name="ep5" index="25" value="0.56895285332373768"/>
  <variable name="ep6" index="26" value="0.24281619308308036"/>
  <variable name="ep7" index="27" value="0.55754921269647306"/>
  <variable name="ep8" index="28" value="0.69214928034002521"/>
  <variable name="ep9" index="29" value="-0.23125872280591547"/>
  <variable name="ep10" index="30" value="0.74009784590644778"/>
  <variable name="ep11" index="31" value="-0.017259900368757172"/>
  <variable name="ep12" index="32" value="0.36134678163695011"/>
  <variable name="ep13" index="33" value="-0.048187234370050271"/>
  <variable name="ep14" index="34" value="-0.96254835899113012"/>
  <variable name="ep15" index="35" value="0.25690776240069924"/>
  <variable name="ep16" index="36" value="-0.96671221276035868"/>
  <variable name="ep17" index="37" value="-0.5536009469151455"/>
  <variable name="ep18" index="38" value="-0.01725986782491036"/>
  <variable name="ep19" index="39" value="-0.27470317916933462"/>
  <variable name="ep20" index="40" value="-0.057718176753478546"/>
  <variable name="ep21" index="41" value="0.31494916555977159"/>
  <variable name="ep22" index="42" value="0.0084700179304076292"/>
  <variable name="ep23" index="43" value="-0.017259859913994782"/>
  <variable name="ep24" index="44" value="-0.067399259634468314"/>
  <variable name="ep25" index="45" value="-0.25065894008843648"/>
  <variable name="ep26" index="46" value="0.36134681566589033"/>
  <variable name="ep27" index="47" value="0.64723337158407679"/>
  <variable name="ep28" index="48" value="-0.13953201133422599"/>
  <variable name="ep29" index="49" value="-0.83775181565944223"/>
  <variable name="ep30" index="50" value="0.14540567433402729"/>
  <variable name="ep31" index="51" value="-0.21166476723985658"/>
  <variable name="ep32" index="52" value="0.40602475448018505"/>
  <variable name="ep33" index="53" value="0.37024588209453579"/>
  <variable name="ep34" index="54" value="-0.11477929827461983"/>
  <variable name="ep35" index="55" value="0.25690760272070257"/>
  <variable name="ep36" index="56" value="-1.1741148268360848"/>
  <variable name="ep37" index="57" value="-0.81007165509352685"/>
  <variable name="ep38" index="58" value="0.070764769501724042"/>
  <variable name="ep39" index="59" value="-0.024579847981158334"/>
  <variable name="ep40" index="60" value="0.1538476073748993"/>
  <variable name="ep41" index="61" value="0.87464455177035527"/>
  <variable name="ep42" index="62" value="-0.19119872883901423"/>
  <variable name="ep43" index="63" value="0.13837767535181469"/>
  <variable name="ep44" index="64" value="-0.072231464423097899"/>
  <variable name="ep45" index="65" value="-0.55351453857718425"/>
  <variable name="ep46" index="66" value="-0.34514678504329666"/>
  <variable name="ep47" index="67" value="-0.36804387500347774"/>
  <variable name="ep48" index="68" value="0.26311877069729839"/>
  <variable name="ep49" index="69" value="0.57282024891803807"/>
  <variable name="ep50" index="70" value="-0.68183633140158051"/>
  <variable name="ep51" index="71" value="0.26609845725177061"/>
  <variable name="ep52" index="72" value="0.52377001783973254"/>
  <variable name="ep53" index="73" value="0.70742003537167342"/>
  <variable name="ep54" index="74" value="0.25690772552657121"/>
  <variable name="ep55" index="75" value="-0.2767548069094326"/>
  <variable name="ep56" index="76" value="0.032512298306178251"/>
  <variable name="ep57" index="77" value="-0.53152097456135072"/>
  <variable name="ep58" index="78" value="-0.039614700584255619"/>
  <variable name="ep59" index="79" value="1.8882919739234876"/>
  <variable name="ep60" index="80" value="-0.08770155187339547"/>
  <variable name="ep61" index="81" value="0.053762977228723759"/>
  <variable name="ep62" index="82" value="-0.17490734759666027"/>
  <variable name="ep63" index="83" value="0.079858737524879264"/>
  <variable name="ep64" index="84" value="0.096786850575355216"/>
  <variable name="ep65" index="85" value="0.075434279312384278"/>
  <variable name="ep66" index="86" value="-0.17089669864872353"/>
  <variable name="ep67" index="87" value="-0.55776348814525245"/>
  <variable name="ep68" index="88" value="-0.50869833263163278"/>
  <variable name="ep69" index="89" value="-0.11477911433442985"/>
  <variable name="ep70" index="90" value="-0.18762038615239435"/>
  <variable name="ep71" index="91" value="-0.45733738734856355"/>
  <variable name="ep72" index="92" value="0.047648321859364476"/>
  <variable name="ep73" index="93" value="-0.024579899932567824"/>
  <variable name="ep74" index="94" value="0.0067843421175164103"/>
  <variable name="ep75" index="95" value="-9.8745474436035127e-05"/>
  <variable name="ep76" index="96" value="0.0067843420984913978"/>
  <variable name="ep77" index="97" value="0.37850731209670646"/>
  <variable name="ep78" index="98" value="0.48521274935592679"/>
  <variable name="ep79" index="99" value="0.70742001743649063"/>
  <variable name="ep80" index="100" value="-1.0458813688667279"/>
  <variable name="ep81" index="101" value="2.2280989572282772"/>
  <variable name="ep82" index="102" value="0.0067843763578947719"/>
  <variable name="ep83" index="103" value="0.2328635855047746"/>
  <variable name="ep84" index="104" value="-0.23125857331995089"/>
  <variable name="ep85" index="105" value="-0.17490764287594537"/>
  <variable name="ep86" index="106" value="-0.017259869720683711"/>
  <variable name="ep87" index="107" value="0.26686050154990154"/>
  <variable name="ep88" index="108" value="-0.55556529477396821"/>
  <variable name="ep89" index="109" value="0.0067843854719382649"/>
  <variable name="ep90" index="110" value="0.038458988098147927"/>
  <variable name="ep91" index="111" value="-0.52947014320389496"/>
  <variable name="ep92" index="112" value="0.23455103741090955"/>
  <variable name="ep93" index="113" value="-0.64800576332233761"/>
  <variable name="ep94" index="114" value="-0.37552408522909092"/>
  <variable name="ep95" index="115" value="-0.072231442934338044"/>
  <variable name="ep96" index="116" value="0.0067844023121152583"/>
  <variable name="ep97" index="117" value="-1.0907825639501192"/>
  <variable name="ep98" index="118" value="-0.0074188529204072557"/>
  <variable name="ep99" index="119" value="0.32269686992163638"/>
  <variable name="ep100" index="120" value="-0.36918959309511845"/>
  <variable name="ep101" index="121" value="-0.11548752720818811"/>
  <variable name="ep102" index="122" value="0.57917895752339721"/>
  <variable name="ep103" index="123" value="0.40602484980284659"/>
  <variable name="ep104" index="124" value="0.59299719381357108"/>
  <variable name="ep105" index="125" value="0.17789127091744164"/>
  <variable name="ep106" index="126" value="-0.033674230018892429"/>
  <variable name="ep107" index="127" value="0.65002861060517336"/>
  <variable name="ep108" index="128" value="-0.60266455574699751"/>
  <variable name="ep109" index="129" value="0.079858729172291712"/>
  <variable name="ep110" index="130" value="-0.18420744308787498"/>
  <variable name="ep111" index="131" value="0.0067843472286412574"/>
  <variable name="ep112" index="132" value="-0.16600876521133076"/>
  <variable name="ep113" index="133" value="0.2328635262645028"/>
  <variable name="ep114" index="134" value="-0.67204801231435551"/>
  <variable name="ep115" index="135" value="-0.14918323702754127"/>
  <variable name="ep116" index="136" value="-0.34399959709920941"/>
  <variable name="ep117" index="137" value="-0.063657314128634901"/>
  <variable name="ep118" index="138" value="0.31325806122026034"/>
  <variable name="ep119" index="139" value="-0.032692661821041941"/>
  <variable name="ep120" index="140" value="-0.88265345402065176"/>
  <variable name="ep121" index="141" value="-0.16136578518718381"/>
  <variable name="ep122" index="142" value="-0.35353021362208509"/>
  <variable name="ep123" index="143" value="0.096786858514496657"/>
  <variable name="ep124" index="144" value="-1.0108869779032439"/>
  <variable name="ep125" index="145" value="0.25615071133950224"/>
  <variable name="ep126" index="146" value="-0.44596705872973624"/>
  <variable name="ep127" index="147" value="-0.62618655338198437"/>
  <variable name="ep128" index="148" value="0.26609826802424347"/>
  <variable name="ep129" index="149" value="-0.25065905432103674"/>
  <variable name="ep130" index="150" value="0.70106163744386996"/>
  <variable name="ep131" index="151" value="0.31325835060188434"/>
  <variable name="ep132" index="152" value="0.6116886967997367"/>
  <variable name="ep133" index="153" value="0.28921405567564773"/>
  <variable name="ep134" index="154" value="0.4466815797048948"/>
  <variable name="ep135" index="155" value="-0.13953207053470587"/>
  <variable name="ep136" index="156" value="-0.27470333663435981"/>
  <variable name="ep137" index="157" value="-0.13732169917234521"/>
  <variable name="ep138" index="158" value="0.0067844835807221995"/>
  <variable name="ep139" index="159" value="-0.096275621664845226"/>
  <variable name="ep140" index="160" value="0.35061595695211073"/>
  <variable name="ep141" index="161" value="0.31120741445013139"/>
  <variable name="ep142" index="162" value="0.0084700444598342882"/>
  <variable name="ep143" index="163" value="0.40602483864045091"/>
  <variable name="ep144" index="164" value="-0.22866616976785825"/>
  <variable name="ep145" index="165" value="0.40602483299936448"/>
  <variable name="ep146" index="166" value="-0.91764790090836534"/>
  <variable name="ep147" index="167" value="0.51899207825476035"/>
  <variable name="ep148" index="168" value="-0.38046483390328983"/>
  <variable name="ep149" index="169" value="0.70741996407808139"/>
  <variable name="ep150" index="170" value="0.10674013358629168"/>
  <variable name="ep151" index="171" value="-0.45733732693467444"/>
  <variable name="ep152" index="172" value="-1.2190180445805183"/>
  <variable name="ep153" index="173" value="-0.7651661864483571"/>
  <variable name="ep154" index="174" value="-1.0116131443120118"/>
  <variable name="ep155" index="175" value="-0.072231372410950304"/>
  <variable name="ep156" index="176" value="0.53426251715264961"/>
  <variable name="ep157" index="177" value="0.057505604447710329"/>
  <variable name="ep158" index="178" value="0.61345330429408906"/>
  <variable name="ep159" index="179" value="0.33020221539642958"/>
  <variable name="ep160" index="180" value="-0.45733742322786641"/>
  <variable name="ep161" index="181" value="-0.26753985730555629"/>
  <variable name="ep162" index="182" value="0.23286397731717248"/>
  <variable name="ep163" index="183" value="0.57917887566971826"/>
  <variable name="ep164" index="184" value="0.27779178125160275"/>
  <variable name="ep165" index="185" value="0.16242199997688941"/>
  <variable name="ep166" index="186" value="0.27364623172350333"/>
  <variable name="ep167" index="187" value="-0.45733740838905196"/>
  <variable name="z1" index="188" value="-0"/>
  <variable name="z2" index="189" value="-0"/>
  <variable name="z3" index="190" value="1"/>
  <variable name="z4" index="191" value="1"/>
  <variable name="z5" index="192" value="1"/>
  <variable name="z6" index="193" value="1"/>
  <variable name="z7" index="194" value="1"/>
  <variable name="z8" index="195" value="-0"/>
  <variable name="z9" index="196" value="-0"/>
  <variable name="z10" index="197" value="-0"/>
  <variable name="z11" index="198" value="1"/>
  <variable name="z12" index="199" value="1"/>
  <variable name="z13" index="200" value="-0"/>
  <variable name="z14" index="201" value="-0"/>
  <variable name="z15" index="202" value="1"/>
  <variable name="z16" index="203" value="1"/>
  <variable name="z17" index="204" value="-0"/>
  <variable name="z18" index="205" value="-0"/>
  <variable name="z19" index="206" value="-0"/>
  <variable name="z20" index="207" value="-0"/>
  <variable name="g" index="208" value="0.89782112000000325"/>
  <variable name="w0" index="209" value="-0"/>
  <variable name="w1" index="210" value="-0"/>
  <variable name="w2" index="211" value="-0"/>
  <variable name="w3" index="212" value="-0"/>
  <variable name="w4" index="213" value="-0"/>
  <variable name="w5" index="214" value="-0"/>
  <variable name="w6" index="215" value="-0"/>
  <variable name="w7" index="216" value="-0"/>
  <variable name="w8" index="217" value="-0"/>
  <variable name="w9" index="218" value="1"/>
  <variable name="w10" index="219" value="-0"/>
  <variable name="w11" index="220" value="-0"/>
  <variable name="w12" index="221" value="-0"/>
  <variable name="w13" index="222" value="-0"/>
  <variable name="w14" index="223" value="-0"/>
  <variable name="w15" index="224" value="-0"/>
  <variable name="w16" index="225" value="-0"/>
  <variable name="w17" index="226" value="-0"/>
  <variable name="w18" index="227" value="-0"/>
  <variable name="w19" index="228" value="-0"/>
  <variable name="w20" index="229" value="-0"/>
  <variable name="k" index="230" value="9"/>
 </variables>
</CPLEXSolution>
